37
0 1 3
1 0 2
2 1 3 32 36
3 0 2 4 35
4 3 5
5 4 6 7 8 9 10 34 36
6 4 5 7 11 15
7 5 6 8 16
8 5 7 9 17
9 5 8 10 18
10 5 9 19
11 6 12
12 11 13
13 12 14
14 13 15 20
15 6 14 16 21 23
16 7 15 17 23 24
17 8 16 18 24 25
18 9 17 19 25 28
19 10 18 28
20 14 21
21 15 20 22
22 21 23 26
23 15 16 22 24 26
24 16 17 23 25 26
25 17 18 24 26 27
26 22 23 24 25 27
27 25 26 28
28 18 19 27 29
29 28 30 33 34
30 29 31 33
31 30 32 33
32 2 31 33 36
33 29 30 31 32 34 35 36
34 5 29 33 36
35 3 5 34 36
36 2 3 32 33 35